120
150
54
43
59
46
57
45
53
54
44
53
50
52
59
45
60
45
48
47
46
55
45
52
53
59
41
56
46
57
43
49
50
56
49
50
56
51
48
46
54
50
45
51
45
59
40
54
58
41
49
51
45
48
56
46
52
55
49
44
41
47
59
47
59
45
49
52
49
52
45
53
49
51
44
45
49
57
41
60
47
49
43
58
44
44
43
48
54
48
57
44
49
56
43
51
44
56
50
49
52
49
43
45
60
56
51
45
43
53
48
53
43
54
49
48
56
46
45
52
53
58
